letting initialStacks = [39, 16, 26, 23, 14, 17, 29, 15, 45, 7, 11, 30, 44, 4, 1, 5, 21, 28, 19, 46, 18, 31, 35, 36, 49, 6, 33, 37, 24, 27, 12, 2, 32, 8, 48, 9, 13, 3, 10, 42, 38, 20, 25, 40, 41, 50, 47, 22, 43, 34, 51]
